p cnf 181 1434
-1 -2 3 0
-4 -2 3 0
-5 -2 3 0
-6 -2 7 0
-8 -2 7 0
-9 -2 7 0
-10 -2 11 0
-12 -2 11 0
-13 -2 11 0
-14 -15 3 0
-16 -15 3 0
-17 -15 3 0
-18 -15 7 0
-19 -15 7 0
-20 -15 7 0
-21 -15 11 0
-22 -15 11 0
-23 -15 11 0
-24 -25 3 0
-26 -25 3 0
-27 -25 3 0
-28 -25 7 0
-29 -25 7 0
-30 -25 7 0
-31 -25 11 0
-32 -25 11 0
-33 -25 11 0
-1 -34 -2 0
-4 -34 -2 0
-5 -34 -2 0
-6 -35 -2 0
-8 -35 -2 0
-9 -35 -2 0
-10 -36 -2 0
-12 -36 -2 0
-13 -36 -2 0
-14 -34 -15 0
-16 -34 -15 0
-17 -34 -15 0
-18 -35 -15 0
-19 -35 -15 0
-20 -35 -15 0
-21 -36 -15 0
-22 -36 -15 0
-23 -36 -15 0
-24 -34 -25 0
-26 -34 -25 0
-27 -34 -25 0
-28 -35 -25 0
-29 -35 -25 0
-30 -35 -25 0
-31 -36 -25 0
-32 -36 -25 0
-33 -36 -25 0
-1 -34 -37 0
-4 -34 -37 0
-5 -34 -37 0
-6 -35 -38 0
-8 -35 -38 0
-9 -35 -38 0
-10 -36 -39 0
-12 -36 -39 0
-13 -36 -39 0
-14 -34 -37 0
-16 -34 -37 0
-17 -34 -37 0
-18 -35 -38 0
-19 -35 -38 0
-20 -35 -38 0
-21 -36 -39 0
-22 -36 -39 0
-23 -36 -39 0
-24 -34 -37 0
-26 -34 -37 0
-27 -34 -37 0
-28 -35 -38 0
-29 -35 -38 0
-30 -35 -38 0
-31 -36 -39 0
-32 -36 -39 0
-33 -36 -39 0
-1 -34 -40 0
-4 -34 -40 0
-5 -34 -40 0
-6 -35 -41 0
-8 -35 -41 0
-9 -35 -41 0
-10 -36 -42 0
-12 -36 -42 0
-13 -36 -42 0
-14 -34 -40 0
-16 -34 -40 0
-17 -34 -40 0
-18 -35 -41 0
-19 -35 -41 0
-20 -35 -41 0
-21 -36 -42 0
-22 -36 -42 0
-23 -36 -42 0
-24 -34 -40 0
-26 -34 -40 0
-27 -34 -40 0
-28 -35 -41 0
-29 -35 -41 0
-30 -35 -41 0
-31 -36 -42 0
-32 -36 -42 0
-33 -36 -42 0
-43 3 0
-44 3 0
-45 7 0
-46 7 0
-47 11 0
-48 11 0
-43 35 0
-44 36 0
-45 34 0
-46 36 0
-47 34 0
-48 35 0
-43 49 0
-44 49 0
-45 50 0
-46 50 0
-47 51 0
-48 51 0
-43 38 0
-44 39 0
-45 37 0
-46 39 0
-47 37 0
-48 38 0
-1 -2 -52 53 45 0
-4 -2 -54 53 45 0
-5 -2 -55 53 45 0
-1 -2 -56 57 47 0
-4 -2 -58 57 47 0
-5 -2 -59 57 47 0
-6 -2 -60 61 43 0
-8 -2 -62 61 43 0
-9 -2 -63 61 43 0
-6 -2 -56 64 48 0
-8 -2 -58 64 48 0
-9 -2 -59 64 48 0
-10 -2 -60 65 44 0
-12 -2 -62 65 44 0
-13 -2 -63 65 44 0
-10 -2 -52 66 46 0
-12 -2 -54 66 46 0
-13 -2 -55 66 46 0
-14 -15 -67 53 45 0
-16 -15 -68 53 45 0
-17 -15 -69 53 45 0
-14 -15 -70 57 47 0
-16 -15 -71 57 47 0
-17 -15 -72 57 47 0
-18 -15 -73 61 43 0
-19 -15 -74 61 43 0
-20 -15 -75 61 43 0
-18 -15 -70 64 48 0
-19 -15 -71 64 48 0
-20 -15 -72 64 48 0
-21 -15 -73 65 44 0
-22 -15 -74 65 44 0
-23 -15 -75 65 44 0
-21 -15 -67 66 46 0
-22 -15 -68 66 46 0
-23 -15 -69 66 46 0
-24 -25 -76 53 45 0
-26 -25 -77 53 45 0
-27 -25 -78 53 45 0
-24 -25 -79 57 47 0
-26 -25 -80 57 47 0
-27 -25 -81 57 47 0
-28 -25 -82 61 43 0
-29 -25 -83 61 43 0
-30 -25 -84 61 43 0
-28 -25 -79 64 48 0
-29 -25 -80 64 48 0
-30 -25 -81 64 48 0
-31 -25 -82 65 44 0
-32 -25 -83 65 44 0
-33 -25 -84 65 44 0
-31 -25 -76 66 46 0
-32 -25 -77 66 46 0
-33 -25 -78 66 46 0
-61 35 0
-65 36 0
-53 34 0
-66 36 0
-57 34 0
-64 35 0
-61 7 0
-65 11 0
-53 3 0
-66 11 0
-57 3 0
-64 7 0
-61 -40 0
-65 -40 0
-53 -41 0
-66 -41 0
-57 -42 0
-64 -42 0
-85 -86 -34 35 7 0
-85 -87 -34 36 11 0
-86 -85 -35 34 3 0
-86 -87 -35 36 11 0
-87 -85 -36 34 3 0
-87 -86 -36 35 7 0
-88 -89 -34 35 7 0
-88 -90 -34 36 11 0
-89 -88 -35 34 3 0
-89 -90 -35 36 11 0
-90 -88 -36 34 3 0
-90 -89 -36 35 7 0
-91 -92 -34 35 7 0
-91 -93 -34 36 11 0
-92 -91 -35 34 3 0
-92 -93 -35 36 11 0
-93 -91 -36 34 3 0
-93 -92 -36 35 7 0
-85 -86 -34 35 61 43 0
-85 -87 -34 36 65 44 0
-86 -85 -35 34 53 45 0
-86 -87 -35 36 66 46 0
-87 -85 -36 34 57 47 0
-87 -86 -36 35 64 48 0
-88 -89 -34 35 61 43 0
-88 -90 -34 36 65 44 0
-89 -88 -35 34 53 45 0
-89 -90 -35 36 66 46 0
-90 -88 -36 34 57 47 0
-90 -89 -36 35 64 48 0
-91 -92 -34 35 61 43 0
-91 -93 -34 36 65 44 0
-92 -91 -35 34 53 45 0
-92 -93 -35 36 66 46 0
-93 -91 -36 34 57 47 0
-93 -92 -36 35 64 48 0
-3 -35 0
-3 -36 0
-7 -34 0
-7 -36 0
-11 -34 0
-11 -35 0
-34 -61 43 0
-34 -65 44 0
-35 -53 45 0
-35 -66 46 0
-36 -57 47 0
-36 -64 48 0
-3 -49 1 0
-3 -49 4 0
-3 -49 5 0
-7 -50 6 0
-7 -50 8 0
-7 -50 9 0
-11 -51 10 0
-11 -51 12 0
-11 -51 13 0
-3 -49 14 0
-3 -49 16 0
-3 -49 17 0
-7 -50 18 0
-7 -50 19 0
-7 -50 20 0
-11 -51 21 0
-11 -51 22 0
-11 -51 23 0
-3 -49 24 0
-3 -49 26 0
-3 -49 27 0
-7 -50 28 0
-7 -50 29 0
-7 -50 30 0
-11 -51 31 0
-11 -51 32 0
-11 -51 33 0
-94 -40 0
-95 -41 0
-96 -42 0
-94 -97 0
-95 -98 0
-96 -99 0
-97 -37 0
-98 -38 0
-99 -39 0
-3 49 100 101 102 103 0
-7 50 104 105 106 107 0
-11 51 108 109 110 111 0
-103 -53 0
-103 -57 0
-107 -61 0
-107 -64 0
-111 -65 0
-111 -66 0
-3 -49 53 45 0
-3 -49 57 47 0
-7 -50 61 43 0
-7 -50 64 48 0
-11 -51 65 44 0
-11 -51 66 46 0
-34 40 60 0
-34 40 62 0
-34 40 63 0
-35 41 52 0
-35 41 54 0
-35 41 55 0
-36 42 56 0
-36 42 58 0
-36 42 59 0
-34 40 73 0
-34 40 74 0
-34 40 75 0
-35 41 67 0
-35 41 68 0
-35 41 69 0
-36 42 70 0
-36 42 71 0
-36 42 72 0
-34 40 82 0
-34 40 83 0
-34 40 84 0
-35 41 76 0
-35 41 77 0
-35 41 78 0
-36 42 79 0
-36 42 80 0
-36 42 81 0
-43 -103 0
-44 -103 0
-45 -107 0
-46 -107 0
-47 -111 0
-48 -111 0
-43 40 0
-44 40 0
-45 41 0
-46 41 0
-47 42 0
-48 42 0
-43 37 0
-44 37 0
-45 38 0
-46 38 0
-47 39 0
-48 39 0
-34 61 43 65 44 0
-35 53 45 66 46 0
-36 57 47 64 48 0
-3 103 53 57 0
-7 107 61 64 0
-11 111 65 66 0
-1 60 52 56 0
-6 60 52 56 0
-10 60 52 56 0
-4 62 54 58 0
-8 62 54 58 0
-12 62 54 58 0
-5 63 55 59 0
-9 63 55 59 0
-13 63 55 59 0
-14 73 67 70 0
-18 73 67 70 0
-21 73 67 70 0
-16 74 68 71 0
-19 74 68 71 0
-22 74 68 71 0
-17 75 69 72 0
-20 75 69 72 0
-23 75 69 72 0
-24 82 76 79 0
-28 82 76 79 0
-31 82 76 79 0
-26 83 77 80 0
-29 83 77 80 0
-32 83 77 80 0
-27 84 78 81 0
-30 84 78 81 0
-33 84 78 81 0
-60 1 6 10 0
-52 1 6 10 0
-56 1 6 10 0
-62 4 8 12 0
-54 4 8 12 0
-58 4 8 12 0
-63 5 9 13 0
-55 5 9 13 0
-59 5 9 13 0
-73 14 18 21 0
-67 14 18 21 0
-70 14 18 21 0
-74 16 19 22 0
-68 16 19 22 0
-71 16 19 22 0
-75 17 20 23 0
-69 17 20 23 0
-72 17 20 23 0
-82 24 28 31 0
-76 24 28 31 0
-79 24 28 31 0
-83 26 29 32 0
-77 26 29 32 0
-80 26 29 32 0
-84 27 30 33 0
-78 27 30 33 0
-81 27 30 33 0
-34 37 94 97 0
-35 38 95 98 0
-36 39 96 99 0
-37 -94 0
-38 -95 0
-39 -96 0
-102 -102 115 0
-102 -101 116 0
-102 -49 117 0
-102 -103 118 0
-102 -100 119 0
-101 -102 120 0
-101 -101 121 0
-101 -49 122 0
-101 -103 123 0
-101 -100 124 0
-49 -102 125 0
-49 -101 126 0
-49 -49 127 0
-49 -103 128 0
-49 -100 129 0
-103 -102 130 0
-103 -101 131 0
-103 -49 132 0
-103 -103 133 0
-103 -100 134 0
-100 -102 135 0
-100 -101 136 0
-100 -49 137 0
-100 -103 138 0
-100 -100 139 0
-106 -106 115 0
-106 -105 116 0
-106 -50 117 0
-106 -107 118 0
-106 -104 119 0
-105 -106 120 0
-105 -105 121 0
-105 -50 122 0
-105 -107 123 0
-105 -104 124 0
-50 -106 125 0
-50 -105 126 0
-50 -50 127 0
-50 -107 128 0
-50 -104 129 0
-107 -106 130 0
-107 -105 131 0
-107 -50 132 0
-107 -107 133 0
-107 -104 134 0
-104 -106 135 0
-104 -105 136 0
-104 -50 137 0
-104 -107 138 0
-104 -104 139 0
-110 -110 115 0
-110 -109 116 0
-110 -51 117 0
-110 -111 118 0
-110 -108 119 0
-109 -110 120 0
-109 -109 121 0
-109 -51 122 0
-109 -111 123 0
-109 -108 124 0
-51 -110 125 0
-51 -109 126 0
-51 -51 127 0
-51 -111 128 0
-51 -108 129 0
-111 -110 130 0
-111 -109 131 0
-111 -51 132 0
-111 -111 133 0
-111 -108 134 0
-108 -110 135 0
-108 -109 136 0
-108 -51 137 0
-108 -111 138 0
-108 -108 139 0
-97 85 88 91 0
-98 86 89 92 0
-99 87 90 93 0
-3 102 101 49 103 100 0
-7 106 105 50 107 104 0
-11 110 109 51 111 108 0
-61 -53 0
-65 -57 0
-53 -61 0
-66 -64 0
-57 -65 0
-64 -66 0
-43 -45 0
-44 -47 0
-45 -43 0
-46 -48 0
-47 -44 0
-48 -46 0
-61 140 -61 0
-61 141 -65 0
-65 142 -61 0
-65 143 -65 0
-53 144 -53 0
-53 145 -66 0
-66 146 -53 0
-66 143 -66 0
-57 144 -57 0
-57 147 -64 0
-64 148 -57 0
-64 140 -64 0
-43 140 -43 0
-43 141 -44 0
-44 142 -43 0
-44 143 -44 0
-45 144 -45 0
-45 145 -46 0
-46 146 -45 0
-46 143 -46 0
-47 144 -47 0
-47 147 -48 0
-48 148 -47 0
-48 140 -48 0
-43 -61 0
-43 -65 0
-44 -61 0
-44 -65 0
-45 -53 0
-45 -66 0
-46 -53 0
-46 -66 0
-47 -57 0
-47 -64 0
-48 -57 0
-48 -64 0
-37 -61 0
-37 -65 0
-38 -53 0
-38 -66 0
-39 -57 0
-39 -64 0
-94 -43 0
-94 -44 0
-95 -45 0
-95 -46 0
-96 -47 0
-96 -48 0
-97 -43 0
-97 -44 0
-98 -45 0
-98 -46 0
-99 -47 0
-99 -48 0
-94 -6 -60 149 61 0
-94 -8 -62 149 61 0
-94 -9 -63 149 61 0
-94 -18 -73 150 61 0
-94 -19 -74 150 61 0
-94 -20 -75 150 61 0
-94 -28 -82 151 61 0
-94 -29 -83 151 61 0
-94 -30 -84 151 61 0
-94 -10 -60 149 65 0
-94 -12 -62 149 65 0
-94 -13 -63 149 65 0
-94 -21 -73 150 65 0
-94 -22 -74 150 65 0
-94 -23 -75 150 65 0
-94 -31 -82 151 65 0
-94 -32 -83 151 65 0
-94 -33 -84 151 65 0
-95 -1 -52 149 53 0
-95 -4 -54 149 53 0
-95 -5 -55 149 53 0
-95 -14 -67 150 53 0
-95 -16 -68 150 53 0
-95 -17 -69 150 53 0
-95 -24 -76 151 53 0
-95 -26 -77 151 53 0
-95 -27 -78 151 53 0
-95 -10 -52 149 66 0
-95 -12 -54 149 66 0
-95 -13 -55 149 66 0
-95 -21 -67 150 66 0
-95 -22 -68 150 66 0
-95 -23 -69 150 66 0
-95 -31 -76 151 66 0
-95 -32 -77 151 66 0
-95 -33 -78 151 66 0
-96 -1 -56 149 57 0
-96 -4 -58 149 57 0
-96 -5 -59 149 57 0
-96 -14 -70 150 57 0
-96 -16 -71 150 57 0
-96 -17 -72 150 57 0
-96 -24 -79 151 57 0
-96 -26 -80 151 57 0
-96 -27 -81 151 57 0
-96 -6 -56 149 64 0
-96 -8 -58 149 64 0
-96 -9 -59 149 64 0
-96 -18 -70 150 64 0
-96 -19 -71 150 64 0
-96 -20 -72 150 64 0
-96 -28 -79 151 64 0
-96 -29 -80 151 64 0
-96 -30 -81 151 64 0
-94 -6 -60 149 61 0
-94 -8 -62 149 61 0
-94 -9 -63 149 61 0
-94 -18 -73 150 61 0
-94 -19 -74 150 61 0
-94 -20 -75 150 61 0
-94 -28 -82 151 61 0
-94 -29 -83 151 61 0
-94 -30 -84 151 61 0
-94 -10 -60 149 65 0
-94 -12 -62 149 65 0
-94 -13 -63 149 65 0
-94 -21 -73 150 65 0
-94 -22 -74 150 65 0
-94 -23 -75 150 65 0
-94 -31 -82 151 65 0
-94 -32 -83 151 65 0
-94 -33 -84 151 65 0
-95 -1 -52 149 53 0
-95 -4 -54 149 53 0
-95 -5 -55 149 53 0
-95 -14 -67 150 53 0
-95 -16 -68 150 53 0
-95 -17 -69 150 53 0
-95 -24 -76 151 53 0
-95 -26 -77 151 53 0
-95 -27 -78 151 53 0
-95 -10 -52 149 66 0
-95 -12 -54 149 66 0
-95 -13 -55 149 66 0
-95 -21 -67 150 66 0
-95 -22 -68 150 66 0
-95 -23 -69 150 66 0
-95 -31 -76 151 66 0
-95 -32 -77 151 66 0
-95 -33 -78 151 66 0
-96 -1 -56 149 57 0
-96 -4 -58 149 57 0
-96 -5 -59 149 57 0
-96 -14 -70 150 57 0
-96 -16 -71 150 57 0
-96 -17 -72 150 57 0
-96 -24 -79 151 57 0
-96 -26 -80 151 57 0
-96 -27 -81 151 57 0
-96 -6 -56 149 64 0
-96 -8 -58 149 64 0
-96 -9 -59 149 64 0
-96 -18 -70 150 64 0
-96 -19 -71 150 64 0
-96 -20 -72 150 64 0
-96 -28 -79 151 64 0
-96 -29 -80 151 64 0
-96 -30 -81 151 64 0
-94 -6 -60 149 61 0
-94 -8 -62 149 61 0
-94 -9 -63 149 61 0
-94 -18 -73 150 61 0
-94 -19 -74 150 61 0
-94 -20 -75 150 61 0
-94 -28 -82 151 61 0
-94 -29 -83 151 61 0
-94 -30 -84 151 61 0
-94 -10 -60 149 65 0
-94 -12 -62 149 65 0
-94 -13 -63 149 65 0
-94 -21 -73 150 65 0
-94 -22 -74 150 65 0
-94 -23 -75 150 65 0
-94 -31 -82 151 65 0
-94 -32 -83 151 65 0
-94 -33 -84 151 65 0
-95 -1 -52 149 53 0
-95 -4 -54 149 53 0
-95 -5 -55 149 53 0
-95 -14 -67 150 53 0
-95 -16 -68 150 53 0
-95 -17 -69 150 53 0
-95 -24 -76 151 53 0
-95 -26 -77 151 53 0
-95 -27 -78 151 53 0
-95 -10 -52 149 66 0
-95 -12 -54 149 66 0
-95 -13 -55 149 66 0
-95 -21 -67 150 66 0
-95 -22 -68 150 66 0
-95 -23 -69 150 66 0
-95 -31 -76 151 66 0
-95 -32 -77 151 66 0
-95 -33 -78 151 66 0
-96 -1 -56 149 57 0
-96 -4 -58 149 57 0
-96 -5 -59 149 57 0
-96 -14 -70 150 57 0
-96 -16 -71 150 57 0
-96 -17 -72 150 57 0
-96 -24 -79 151 57 0
-96 -26 -80 151 57 0
-96 -27 -81 151 57 0
-96 -6 -56 149 64 0
-96 -8 -58 149 64 0
-96 -9 -59 149 64 0
-96 -18 -70 150 64 0
-96 -19 -71 150 64 0
-96 -20 -72 150 64 0
-96 -28 -79 151 64 0
-96 -29 -80 151 64 0
-96 -30 -81 151 64 0
-97 -6 -60 149 61 0
-97 -8 -62 149 61 0
-97 -9 -63 149 61 0
-97 -18 -73 150 61 0
-97 -19 -74 150 61 0
-97 -20 -75 150 61 0
-97 -28 -82 151 61 0
-97 -29 -83 151 61 0
-97 -30 -84 151 61 0
-97 -10 -60 149 65 0
-97 -12 -62 149 65 0
-97 -13 -63 149 65 0
-97 -21 -73 150 65 0
-97 -22 -74 150 65 0
-97 -23 -75 150 65 0
-97 -31 -82 151 65 0
-97 -32 -83 151 65 0
-97 -33 -84 151 65 0
-98 -1 -52 149 53 0
-98 -4 -54 149 53 0
-98 -5 -55 149 53 0
-98 -14 -67 150 53 0
-98 -16 -68 150 53 0
-98 -17 -69 150 53 0
-98 -24 -76 151 53 0
-98 -26 -77 151 53 0
-98 -27 -78 151 53 0
-98 -10 -52 149 66 0
-98 -12 -54 149 66 0
-98 -13 -55 149 66 0
-98 -21 -67 150 66 0
-98 -22 -68 150 66 0
-98 -23 -69 150 66 0
-98 -31 -76 151 66 0
-98 -32 -77 151 66 0
-98 -33 -78 151 66 0
-99 -1 -56 149 57 0
-99 -4 -58 149 57 0
-99 -5 -59 149 57 0
-99 -14 -70 150 57 0
-99 -16 -71 150 57 0
-99 -17 -72 150 57 0
-99 -24 -79 151 57 0
-99 -26 -80 151 57 0
-99 -27 -81 151 57 0
-99 -6 -56 149 64 0
-99 -8 -58 149 64 0
-99 -9 -59 149 64 0
-99 -18 -70 150 64 0
-99 -19 -71 150 64 0
-99 -20 -72 150 64 0
-99 -28 -79 151 64 0
-99 -29 -80 151 64 0
-99 -30 -81 151 64 0
-97 -6 60 61 0
-97 -8 62 61 0
-97 -9 63 61 0
-97 -18 73 61 0
-97 -19 74 61 0
-97 -20 75 61 0
-97 -28 82 61 0
-97 -29 83 61 0
-97 -30 84 61 0
-97 -10 60 65 0
-97 -12 62 65 0
-97 -13 63 65 0
-97 -21 73 65 0
-97 -22 74 65 0
-97 -23 75 65 0
-97 -31 82 65 0
-97 -32 83 65 0
-97 -33 84 65 0
-98 -1 52 53 0
-98 -4 54 53 0
-98 -5 55 53 0
-98 -14 67 53 0
-98 -16 68 53 0
-98 -17 69 53 0
-98 -24 76 53 0
-98 -26 77 53 0
-98 -27 78 53 0
-98 -10 52 66 0
-98 -12 54 66 0
-98 -13 55 66 0
-98 -21 67 66 0
-98 -22 68 66 0
-98 -23 69 66 0
-98 -31 76 66 0
-98 -32 77 66 0
-98 -33 78 66 0
-99 -1 56 57 0
-99 -4 58 57 0
-99 -5 59 57 0
-99 -14 70 57 0
-99 -16 71 57 0
-99 -17 72 57 0
-99 -24 79 57 0
-99 -26 80 57 0
-99 -27 81 57 0
-99 -6 56 64 0
-99 -8 58 64 0
-99 -9 59 64 0
-99 -18 70 64 0
-99 -19 71 64 0
-99 -20 72 64 0
-99 -28 79 64 0
-99 -29 80 64 0
-99 -30 81 64 0
-97 -6 -60 149 61 0
-97 -8 -62 149 61 0
-97 -9 -63 149 61 0
-97 -18 -73 150 61 0
-97 -19 -74 150 61 0
-97 -20 -75 150 61 0
-97 -28 -82 151 61 0
-97 -29 -83 151 61 0
-97 -30 -84 151 61 0
-97 -10 -60 149 65 0
-97 -12 -62 149 65 0
-97 -13 -63 149 65 0
-97 -21 -73 150 65 0
-97 -22 -74 150 65 0
-97 -23 -75 150 65 0
-97 -31 -82 151 65 0
-97 -32 -83 151 65 0
-97 -33 -84 151 65 0
-98 -1 -52 149 53 0
-98 -4 -54 149 53 0
-98 -5 -55 149 53 0
-98 -14 -67 150 53 0
-98 -16 -68 150 53 0
-98 -17 -69 150 53 0
-98 -24 -76 151 53 0
-98 -26 -77 151 53 0
-98 -27 -78 151 53 0
-98 -10 -52 149 66 0
-98 -12 -54 149 66 0
-98 -13 -55 149 66 0
-98 -21 -67 150 66 0
-98 -22 -68 150 66 0
-98 -23 -69 150 66 0
-98 -31 -76 151 66 0
-98 -32 -77 151 66 0
-98 -33 -78 151 66 0
-99 -1 -56 149 57 0
-99 -4 -58 149 57 0
-99 -5 -59 149 57 0
-99 -14 -70 150 57 0
-99 -16 -71 150 57 0
-99 -17 -72 150 57 0
-99 -24 -79 151 57 0
-99 -26 -80 151 57 0
-99 -27 -81 151 57 0
-99 -6 -56 149 64 0
-99 -8 -58 149 64 0
-99 -9 -59 149 64 0
-99 -18 -70 150 64 0
-99 -19 -71 150 64 0
-99 -20 -72 150 64 0
-99 -28 -79 151 64 0
-99 -29 -80 151 64 0
-99 -30 -81 151 64 0
-85 -86 147 61 53 0
-85 -87 145 65 57 0
-86 -85 148 53 61 0
-86 -87 141 66 64 0
-87 -85 146 57 65 0
-87 -86 142 64 66 0
-88 -89 147 61 53 0
-88 -90 145 65 57 0
-89 -88 148 53 61 0
-89 -90 141 66 64 0
-90 -88 146 57 65 0
-90 -89 142 64 66 0
-91 -92 147 61 53 0
-91 -93 145 65 57 0
-92 -91 148 53 61 0
-92 -93 141 66 64 0
-93 -91 146 57 65 0
-93 -92 142 64 66 0
-85 -86 147 -3 -35 53 0
-85 -87 145 -3 -36 57 0
-86 -85 148 -7 -34 61 0
-86 -87 141 -7 -36 64 0
-87 -85 146 -11 -34 65 0
-87 -86 142 -11 -35 66 0
-88 -89 147 -3 -35 53 0
-88 -90 145 -3 -36 57 0
-89 -88 148 -7 -34 61 0
-89 -90 141 -7 -36 64 0
-90 -88 146 -11 -34 65 0
-90 -89 142 -11 -35 66 0
-91 -92 147 -3 -35 53 0
-91 -93 145 -3 -36 57 0
-92 -91 148 -7 -34 61 0
-92 -93 141 -7 -36 64 0
-93 -91 146 -11 -34 65 0
-93 -92 142 -11 -35 66 0
-61 -85 86 0
-61 -88 89 0
-61 -91 92 0
-65 -85 87 0
-65 -88 90 0
-65 -91 93 0
-53 -86 85 0
-53 -89 88 0
-53 -92 91 0
-66 -86 87 0
-66 -89 90 0
-66 -92 93 0
-57 -87 85 0
-57 -90 88 0
-57 -93 91 0
-64 -87 86 0
-64 -90 89 0
-64 -93 92 0
-1 3 0
-4 3 0
-5 3 0
-6 7 0
-8 7 0
-9 7 0
-10 11 0
-12 11 0
-13 11 0
-14 3 0
-16 3 0
-17 3 0
-18 7 0
-19 7 0
-20 7 0
-21 11 0
-22 11 0
-23 11 0
-24 3 0
-26 3 0
-27 3 0
-28 7 0
-29 7 0
-30 7 0
-31 11 0
-32 11 0
-33 11 0
-102 3 0
-101 3 0
-49 3 0
-103 3 0
-100 3 0
-106 7 0
-105 7 0
-50 7 0
-107 7 0
-104 7 0
-110 11 0
-109 11 0
-51 11 0
-111 11 0
-108 11 0
-61 34 0
-65 34 0
-53 35 0
-66 35 0
-57 36 0
-64 36 0
-61 7 0
-65 11 0
-53 3 0
-66 11 0
-57 3 0
-64 7 0
-97 34 0
-94 34 0
-37 34 0
-98 35 0
-95 35 0
-38 35 0
-99 36 0
-96 36 0
-39 36 0
-43 34 0
-44 34 0
-45 35 0
-46 35 0
-47 36 0
-48 36 0
-43 7 0
-44 11 0
-45 3 0
-46 11 0
-47 3 0
-48 7 0
-40 34 0
-112 34 0
-152 34 0
-41 35 0
-113 35 0
-153 35 0
-42 36 0
-114 36 0
-154 36 0
-60 34 0
-62 34 0
-63 34 0
-52 35 0
-54 35 0
-55 35 0
-56 36 0
-58 36 0
-59 36 0
-73 34 0
-74 34 0
-75 34 0
-67 35 0
-68 35 0
-69 35 0
-70 36 0
-71 36 0
-72 36 0
-82 34 0
-83 34 0
-84 34 0
-76 35 0
-77 35 0
-78 35 0
-79 36 0
-80 36 0
-81 36 0
34 3 0
35 7 0
36 11 0
-34 -3 0
-35 -7 0
-36 -11 0
-97 155 -97 0
-97 156 -94 0
-97 157 -37 0
-94 158 -97 0
-94 159 -94 0
-94 160 -37 0
-37 161 -97 0
-37 162 -94 0
-37 163 -37 0
-98 155 -98 0
-98 156 -95 0
-98 157 -38 0
-95 158 -98 0
-95 159 -95 0
-95 160 -38 0
-38 161 -98 0
-38 162 -95 0
-38 163 -38 0
-99 155 -99 0
-99 156 -96 0
-99 157 -39 0
-96 158 -99 0
-96 159 -96 0
-96 160 -39 0
-39 161 -99 0
-39 162 -96 0
-39 163 -39 0
-40 164 -40 0
-40 165 -112 0
-40 166 -152 0
-112 167 -40 0
-112 168 -112 0
-112 169 -152 0
-152 170 -40 0
-152 171 -112 0
-152 172 -152 0
-41 164 -41 0
-41 165 -113 0
-41 166 -153 0
-113 167 -41 0
-113 168 -113 0
-113 169 -153 0
-153 170 -41 0
-153 171 -113 0
-153 172 -153 0
-42 164 -42 0
-42 165 -114 0
-42 166 -154 0
-114 167 -42 0
-114 168 -114 0
-114 169 -154 0
-154 170 -42 0
-154 171 -114 0
-154 172 -154 0
-1 173 -1 0
-4 173 -4 0
-5 173 -5 0
-6 173 -6 0
-8 173 -8 0
-9 173 -9 0
-10 173 -10 0
-12 173 -12 0
-13 173 -13 0
-1 174 -14 0
-4 174 -16 0
-5 174 -17 0
-6 174 -18 0
-8 174 -19 0
-9 174 -20 0
-10 174 -21 0
-12 174 -22 0
-13 174 -23 0
-1 175 -24 0
-4 175 -26 0
-5 175 -27 0
-6 175 -28 0
-8 175 -29 0
-9 175 -30 0
-10 175 -31 0
-12 175 -32 0
-13 175 -33 0
-14 176 -1 0
-16 176 -4 0
-17 176 -5 0
-18 176 -6 0
-19 176 -8 0
-20 176 -9 0
-21 176 -10 0
-22 176 -12 0
-23 176 -13 0
-14 177 -14 0
-16 177 -16 0
-17 177 -17 0
-18 177 -18 0
-19 177 -19 0
-20 177 -20 0
-21 177 -21 0
-22 177 -22 0
-23 177 -23 0
-14 178 -24 0
-16 178 -26 0
-17 178 -27 0
-18 178 -28 0
-19 178 -29 0
-20 178 -30 0
-21 178 -31 0
-22 178 -32 0
-23 178 -33 0
-24 179 -1 0
-26 179 -4 0
-27 179 -5 0
-28 179 -6 0
-29 179 -8 0
-30 179 -9 0
-31 179 -10 0
-32 179 -12 0
-33 179 -13 0
-24 180 -14 0
-26 180 -16 0
-27 180 -17 0
-28 180 -18 0
-29 180 -19 0
-30 180 -20 0
-31 180 -21 0
-32 180 -22 0
-33 180 -23 0
-24 181 -24 0
-26 181 -26 0
-27 181 -27 0
-28 181 -28 0
-29 181 -29 0
-30 181 -30 0
-31 181 -31 0
-32 181 -32 0
-33 181 -33 0
-1 144 -1 0
-4 144 -4 0
-5 144 -5 0
-1 147 -6 0
-4 147 -8 0
-5 147 -9 0
-1 145 -10 0
-4 145 -12 0
-5 145 -13 0
-6 148 -1 0
-8 148 -4 0
-9 148 -5 0
-6 140 -6 0
-8 140 -8 0
-9 140 -9 0
-6 141 -10 0
-8 141 -12 0
-9 141 -13 0
-10 146 -1 0
-12 146 -4 0
-13 146 -5 0
-10 142 -6 0
-12 142 -8 0
-13 142 -9 0
-10 143 -10 0
-12 143 -12 0
-13 143 -13 0
-14 144 -14 0
-16 144 -16 0
-17 144 -17 0
-14 147 -18 0
-16 147 -19 0
-17 147 -20 0
-14 145 -21 0
-16 145 -22 0
-17 145 -23 0
-18 148 -14 0
-19 148 -16 0
-20 148 -17 0
-18 140 -18 0
-19 140 -19 0
-20 140 -20 0
-18 141 -21 0
-19 141 -22 0
-20 141 -23 0
-21 146 -14 0
-22 146 -16 0
-23 146 -17 0
-21 142 -18 0
-22 142 -19 0
-23 142 -20 0
-21 143 -21 0
-22 143 -22 0
-23 143 -23 0
-24 144 -24 0
-26 144 -26 0
-27 144 -27 0
-24 147 -28 0
-26 147 -29 0
-27 147 -30 0
-24 145 -31 0
-26 145 -32 0
-27 145 -33 0
-28 148 -24 0
-29 148 -26 0
-30 148 -27 0
-28 140 -28 0
-29 140 -29 0
-30 140 -30 0
-28 141 -31 0
-29 141 -32 0
-30 141 -33 0
-31 146 -24 0
-32 146 -26 0
-33 146 -27 0
-31 142 -28 0
-32 142 -29 0
-33 142 -30 0
-31 143 -31 0
-32 143 -32 0
-33 143 -33 0
-60 173 -60 0
-62 173 -62 0
-63 173 -63 0
-52 173 -52 0
-54 173 -54 0
-55 173 -55 0
-56 173 -56 0
-58 173 -58 0
-59 173 -59 0
-60 174 -73 0
-62 174 -74 0
-63 174 -75 0
-52 174 -67 0
-54 174 -68 0
-55 174 -69 0
-56 174 -70 0
-58 174 -71 0
-59 174 -72 0
-60 175 -82 0
-62 175 -83 0
-63 175 -84 0
-52 175 -76 0
-54 175 -77 0
-55 175 -78 0
-56 175 -79 0
-58 175 -80 0
-59 175 -81 0
-73 176 -60 0
-74 176 -62 0
-75 176 -63 0
-67 176 -52 0
-68 176 -54 0
-69 176 -55 0
-70 176 -56 0
-71 176 -58 0
-72 176 -59 0
-73 177 -73 0
-74 177 -74 0
-75 177 -75 0
-67 177 -67 0
-68 177 -68 0
-69 177 -69 0
-70 177 -70 0
-71 177 -71 0
-72 177 -72 0
-73 178 -82 0
-74 178 -83 0
-75 178 -84 0
-67 178 -76 0
-68 178 -77 0
-69 178 -78 0
-70 178 -79 0
-71 178 -80 0
-72 178 -81 0
-82 179 -60 0
-83 179 -62 0
-84 179 -63 0
-76 179 -52 0
-77 179 -54 0
-78 179 -55 0
-79 179 -56 0
-80 179 -58 0
-81 179 -59 0
-82 180 -73 0
-83 180 -74 0
-84 180 -75 0
-76 180 -67 0
-77 180 -68 0
-78 180 -69 0
-79 180 -70 0
-80 180 -71 0
-81 180 -72 0
-82 181 -82 0
-83 181 -83 0
-84 181 -84 0
-76 181 -76 0
-77 181 -77 0
-78 181 -78 0
-79 181 -79 0
-80 181 -80 0
-81 181 -81 0
-60 144 -60 0
-62 144 -62 0
-63 144 -63 0
-60 147 -52 0
-62 147 -54 0
-63 147 -55 0
-60 145 -56 0
-62 145 -58 0
-63 145 -59 0
-52 148 -60 0
-54 148 -62 0
-55 148 -63 0
-52 140 -52 0
-54 140 -54 0
-55 140 -55 0
-52 141 -56 0
-54 141 -58 0
-55 141 -59 0
-56 146 -60 0
-58 146 -62 0
-59 146 -63 0
-56 142 -52 0
-58 142 -54 0
-59 142 -55 0
-56 143 -56 0
-58 143 -58 0
-59 143 -59 0
-73 144 -73 0
-74 144 -74 0
-75 144 -75 0
-73 147 -67 0
-74 147 -68 0
-75 147 -69 0
-73 145 -70 0
-74 145 -71 0
-75 145 -72 0
-67 148 -73 0
-68 148 -74 0
-69 148 -75 0
-67 140 -67 0
-68 140 -68 0
-69 140 -69 0
-67 141 -70 0
-68 141 -71 0
-69 141 -72 0
-70 146 -73 0
-71 146 -74 0
-72 146 -75 0
-70 142 -67 0
-71 142 -68 0
-72 142 -69 0
-70 143 -70 0
-71 143 -71 0
-72 143 -72 0
-82 144 -82 0
-83 144 -83 0
-84 144 -84 0
-82 147 -76 0
-83 147 -77 0
-84 147 -78 0
-82 145 -79 0
-83 145 -80 0
-84 145 -81 0
-76 148 -82 0
-77 148 -83 0
-78 148 -84 0
-76 140 -76 0
-77 140 -77 0
-78 140 -78 0
-76 141 -79 0
-77 141 -80 0
-78 141 -81 0
-79 146 -82 0
-80 146 -83 0
-81 146 -84 0
-79 142 -76 0
-80 142 -77 0
-81 142 -78 0
-79 143 -79 0
-80 143 -80 0
-81 143 -81 0
